p cnf 10 18
2 3 6 7 8 10 -9 -5 -4 0
1 3 7 8 -10 -9 -6 -5 -2 0
-8 2 6 0
9 -6 -4 7 0
-6 3 5 -10 0
1 3 -9 -8 -7 0
5 7 8 10 -4 0
-8 -7 4 6 0
1 4 6 -10 -7 -5 -3 0
8 9 2 5 0
6 8 10 -1 -9 -7 -3 -2 0
2 4 5 0
1 8 9 10 -7 -6 -3 -2 0
9 3 -10 0
1 -4 0
3 6 7 -10 -9 -8 -5 -1 0
-7 -4 -2 0
4 7 10 -1 -6 -5 -2 0
